Data path: /scratch/opt/lxu/CFLG/benchmarks/random_B
Instance: r_25_0.1_36.txt
Result path: /scratch/opt/lxu/CFLG/results/random_B
Solver: Gurobi
Time limit: 3600
Formulation: LEFPV
Cover: Large
julia --project=. src/main.jl /scratch/opt/lxu/CFLG/benchmarks/random_B r_25_0.1_36.txt /scratch/opt/lxu/CFLG/results/random_B Gurobi 3600 LEFPV Large
The latest version of Julia in the `release` channel is 1.11.5+0.x64.linux.gnu. You currently have `1.11.4+0.x64.linux.gnu` installed. Run:

  juliaup update

in your terminal shell to install Julia 1.11.5+0.x64.linux.gnu and update the `release` channel to that version.
/scratch/opt/lxu/CFLG/benchmarks/random_B Gurobi 3600.0 /scratch/opt/lxu/CFLG/results/random_B r_25_0.1_36.txt LEFPV Large
/scratch/opt/lxu/CFLG/benchmarks/random_B/r_25_0.1_36.txt

 read graph
data loaded

problem_graph/original graph: node: 25/25 edge: 36/36 dlt: 1.4522257607055817 break_avg_len: 0.7261128803527909 break_max_len: 0.9874679371971357Set parameter TokenServer to value "solice01.zib.de"
Set parameter Threads to value 1
Set parameter OutputFlag to value 1
Gurobi Optimizer version 12.0.1 build v12.0.1rc0 (linux64 - "Debian GNU/Linux 12 (bookworm)")

CPU model: Intel(R) Xeon(R) Gold 5122 CPU @ 3.60GHz, instruction set [SSE2|AVX|AVX2|AVX512]
Thread count: 8 physical cores, 16 logical processors, using up to 1 threads

Non-default parameters:
Threads  1

Optimize a model with 61 rows, 108 columns and 180 nonzeros
Model fingerprint: 0x350c29bb
Coefficient statistics:
  Matrix range     [1e+00, 1e+00]
  Objective range  [1e+00, 1e+00]
  Bounds range     [1e+00, 1e+00]
  RHS range        [1e+00, 1e+00]
Presolve removed 61 rows and 108 columns
Presolve time: 0.00s
Presolve: All rows and columns removed
Iteration    Objective       Primal Inf.    Dual Inf.      Time
       0    3.0000000e+00   0.000000e+00   0.000000e+00      0s

Solved in 0 iterations and 0.00 seconds (0.00 work units)
Optimal objective  3.000000000e+00

User-callback calls 35, time in user-callback 0.00 sec
elapsed CPU time: 1.30478 seconds
Set parameter TokenServer to value "solice01.zib.de"
Set parameter Threads to value 1
Set parameter OutputFlag to value 1
Set parameter MIPGap to value 0.0001
Set parameter MIPGapAbs to value 1
Set parameter TimeLimit to value 3598.69522

 more cuts:falsefalse
3 0
formulation:LEFPV0 36 25
Set parameter PreCrush to value 1

 model loaded

Gurobi Optimizer version 12.0.1 build v12.0.1rc0 (linux64 - "Debian GNU/Linux 12 (bookworm)")

CPU model: Intel(R) Xeon(R) Gold 5122 CPU @ 3.60GHz, instruction set [SSE2|AVX|AVX2|AVX512]
Thread count: 8 physical cores, 16 logical processors, using up to 1 threads

Non-default parameters:
TimeLimit  3598.69522
MIPGapAbs  1
PreCrush  1
Threads  1

Optimize a model with 1284 rows, 692 columns and 3685 nonzeros
Model fingerprint: 0x6d3cd129
Variable types: 97 continuous, 595 integer (595 binary)
Coefficient statistics:
  Matrix range     [1e-06, 2e+00]
  Objective range  [1e+00, 1e+00]
  Bounds range     [3e-01, 1e+00]
  RHS range        [3e-01, 5e+00]
Found heuristic solution: objective 13.0000000
Presolve removed 298 rows and 103 columns
Presolve time: 0.03s
Presolved: 986 rows, 589 columns, 5267 nonzeros
Variable types: 58 continuous, 531 integer (531 binary)

Root relaxation: objective 1.778971e+00, 551 iterations, 0.01 seconds (0.01 work units)

    Nodes    |    Current Node    |     Objective Bounds      |     Work
 Expl Unexpl |  Obj  Depth IntInf | Incumbent    BestBd   Gap | It/Node Time

     0     0    1.77897    0  140   13.00000    1.77897  86.3%     -    0s
H    0     0                      11.0000000    1.77897  83.8%     -    0s
H    0     0                      10.0000000    1.77897  82.2%     -    0s
H    0     0                       9.0000000    1.77897  80.2%     -    0s
     0     0    2.39101    0  154    9.00000    2.39101  73.4%     -    0s
H    0     0                       8.0000000    2.42341  69.7%     -    0s
H    0     0                       6.0000000    2.42341  59.6%     -    0s
     0     0    2.42341    0  151    6.00000    2.42341  59.6%     -    0s
     0     0    2.42341    0  149    6.00000    2.42341  59.6%     -    0s
     0     0    2.42341    0  149    6.00000    2.42341  59.6%     -    0s
     0     0    2.56168    0  174    6.00000    2.56168  57.3%     -    0s
     0     0    2.59718    0  176    6.00000    2.59718  56.7%     -    0s
     0     0    2.59718    0  176    6.00000    2.59718  56.7%     -    0s
     0     0    2.87302    0  150    6.00000    2.87302  52.1%     -    0s
     0     0    3.00000    0  168    6.00000    3.00000  50.0%     -    0s
     0     0    3.00000    0  168    6.00000    3.00000  50.0%     -    0s
     0     0    3.00000    0  110    6.00000    3.00000  50.0%     -    0s
     0     0    3.00000    0  104    6.00000    3.00000  50.0%     -    0s
     0     0    3.02083    0  129    6.00000    3.02083  49.7%     -    0s
     0     0    3.02140    0  143    6.00000    3.02140  49.6%     -    0s
     0     0    3.02301    0  150    6.00000    3.02301  49.6%     -    0s
     0     0    3.02301    0  150    6.00000    3.02301  49.6%     -    0s
     0     0    3.02439    0  137    6.00000    3.02439  49.6%     -    0s
H    0     0                       5.0000000    3.02439  39.5%     -    0s
     0     0    3.02439    0  137    5.00000    3.02439  39.5%     -    0s
     0     0    3.02439    0  137    5.00000    3.02439  39.5%     -    0s
     0     0    3.02439    0  130    5.00000    3.02439  39.5%     -    0s
     0     0    3.04198    0  132    5.00000    3.04198  39.2%     -    0s
     0     0    3.04198    0  130    5.00000    3.04198  39.2%     -    0s
     0     0    3.04198    0  130    5.00000    3.04198  39.2%     -    0s
     0     2    3.04545    0  130    5.00000    3.04545  39.1%     -    0s
*  155     3              15       4.0000000    4.00000  0.00%  37.6    0s

Cutting planes:
  Learned: 2
  Cover: 9
  Implied bound: 7
  MIR: 10
  GUB cover: 17
  Zero half: 5
  RLT: 16
  Relax-and-lift: 5
  BQP: 4

Explored 156 nodes (8591 simplex iterations) in 0.74 seconds (0.50 work units)
Thread count was 1 (of 16 available processors)

Solution count 8: 4 5 6 ... 13

Optimal solution found (tolerance 1.00e-04)
Best objective 4.000000000000e+00, best bound 4.000000000000e+00, gap 0.0000%

User-callback calls 1258, time in user-callback 0.92 sec

 sepatime0
4.0Stat(MathOptInterface.OPTIMAL, 4.0, 4.0, 0.0, 0.0, 1.30478, 0.740576982498169, 156, Main.CFLG.LEFPV, "", #undef)
